(set-logic SLIA)
(define-fun succ ((X Int) ) Int (+ 1 X ))
(define-fun pred ((X Int) ) Int (+ -1 X )) 
(define-fun firstidx ((X String) (Y String) ) Int (str.indexof X Y 1 )) 
(define-fun idxplus ((X String) (Y String) (P Int) (Q Int)) Int (+ (str.indexof X Y P) Q)) 
(define-fun idxminus ((X String) (Y String) (P Int) (Q Int)) Int (- (str.indexof X Y P) Q)) 
(define-fun getfirst ((X String)) String (str.substr X 0 1))
(define-fun getprefix ((X String) (Y Int)) String (str.substr X 0 Y))
(define-fun getsuffix ((X String) (Y Int)) String (str.substr X Y (str.len X)))
(define-fun getprefixone ((X String) (Y Int)) String (str.substr X 1 Y))
(define-fun doubleconcat ((X String) (Y String) (Z String)) String (str.++ (str.++ X Y) Z))
(define-fun sesuffix ((X String) (Y String) (P Int) (Q Int) (R Int)) String (str.substr X (+ (str.indexof X Y P) Q) R))
(define-fun lasuffix ((X String) (Y Int) (Z Int)) String (str.substr X (- Y 1) Z))
(define-fun subsconcat ((X String) (Y Int) (P Int) (Q Int)) String (str.++ (str.substr X 0 Y) (str.substr X P Q)))
(define-fun rpself ((X String) (Y String) (N Int) (M Int)) String (str.replace X (str.substr X N M) Y))
(define-fun doublerp ((X String) (Y String) (Z String) (P String) (Q String)) String (str.replace (str.replace X Y Z) P Q ))
(synth-fun f ((firstname String) (lastname String)) String
    ((Start String (ntString))
     (ntString String (firstname lastname " "
	(getfirst ntString)
	(getprefix ntString ntInt)
	(getsuffix ntString ntInt)
	(doubleconcat ntString ntString ntString)
	(sesuffix ntString ntString ntInt ntInt ntInt)
	(str.replace ntString ntString ntString)
	(ite ntBool ntString ntString)
	(str.substr ntString ntInt ntInt)
))
      (ntInt Int (0 1 2
	(succ ntInt)
	(pred ntInt)
	(firstidx ntString ntString)
	(idxplus ntString ntString ntInt ntInt)
	(+ ntInt ntInt)
	(- ntInt ntInt)
	(str.len ntString)
	(ite ntBool ntInt ntInt)
	(str.indexof ntString ntString ntInt)
))
(ntBool Bool (true false
	(str.contains ntString ntString)
))
))
(constraint (= (f "Launa" "Withers") "Withers Launa"))
(constraint (= (f "Launa" "Withers") "Withers Launa"))
(constraint (= (f "Launa" "Withers") "Withers Launa"))
(constraint (= (f "Lakenya" "Edison") "Edison Lakenya"))
(constraint (= (f "Lakenya" "Edison") "Edison Lakenya"))
(constraint (= (f "Lakenya" "Edison") "Edison Lakenya"))
(constraint (= (f "Brendan" "Hage") "Hage Brendan"))
(constraint (= (f "Brendan" "Hage") "Hage Brendan"))
(constraint (= (f "Brendan" "Hage") "Hage Brendan"))
(constraint (= (f "Bradford" "Lango") "Lango Bradford"))
(constraint (= (f "Bradford" "Lango") "Lango Bradford"))
(constraint (= (f "Bradford" "Lango") "Lango Bradford"))
(constraint (= (f "Rudolf" "Akiyama") "Akiyama Rudolf"))
(constraint (= (f "Rudolf" "Akiyama") "Akiyama Rudolf"))
(constraint (= (f "Rudolf" "Akiyama") "Akiyama Rudolf"))
(constraint (= (f "Lara" "Constable") "Constable Lara"))
(constraint (= (f "Lara" "Constable") "Constable Lara"))
(constraint (= (f "Lara" "Constable") "Constable Lara"))
(constraint (= (f "Madelaine" "Ghoston") "Ghoston Madelaine"))
(constraint (= (f "Madelaine" "Ghoston") "Ghoston Madelaine"))
(constraint (= (f "Madelaine" "Ghoston") "Ghoston Madelaine"))
(constraint (= (f "Salley" "Hornak") "Hornak Salley"))
(constraint (= (f "Salley" "Hornak") "Hornak Salley"))
(constraint (= (f "Salley" "Hornak") "Hornak Salley"))
(constraint (= (f "Micha" "Junkin") "Junkin Micha"))
(constraint (= (f "Micha" "Junkin") "Junkin Micha"))
(constraint (= (f "Micha" "Junkin") "Junkin Micha"))
(constraint (= (f "Teddy" "Bobo") "Bobo Teddy"))
(constraint (= (f "Teddy" "Bobo") "Bobo Teddy"))
(constraint (= (f "Teddy" "Bobo") "Bobo Teddy"))
(constraint (= (f "Coralee" "Scalia") "Scalia Coralee"))
(constraint (= (f "Coralee" "Scalia") "Scalia Coralee"))
(constraint (= (f "Coralee" "Scalia") "Scalia Coralee"))
(constraint (= (f "Jeff" "Quashie") "Quashie Jeff"))
(constraint (= (f "Jeff" "Quashie") "Quashie Jeff"))
(constraint (= (f "Jeff" "Quashie") "Quashie Jeff"))
(constraint (= (f "Vena" "Babiarz") "Babiarz Vena"))
(constraint (= (f "Vena" "Babiarz") "Babiarz Vena"))
(constraint (= (f "Vena" "Babiarz") "Babiarz Vena"))
(constraint (= (f "Karrie" "Lain") "Lain Karrie"))
(constraint (= (f "Karrie" "Lain") "Lain Karrie"))
(constraint (= (f "Karrie" "Lain") "Lain Karrie"))
(constraint (= (f "Tobias" "Dermody") "Dermody Tobias"))
(constraint (= (f "Tobias" "Dermody") "Dermody Tobias"))
(constraint (= (f "Tobias" "Dermody") "Dermody Tobias"))
(constraint (= (f "Celsa" "Hopkins") "Hopkins Celsa"))
(constraint (= (f "Celsa" "Hopkins") "Hopkins Celsa"))
(constraint (= (f "Celsa" "Hopkins") "Hopkins Celsa"))
(constraint (= (f "Kimberley" "Halpern") "Halpern Kimberley"))
(constraint (= (f "Kimberley" "Halpern") "Halpern Kimberley"))
(constraint (= (f "Kimberley" "Halpern") "Halpern Kimberley"))
(constraint (= (f "Phillip" "Rowden") "Rowden Phillip"))
(constraint (= (f "Phillip" "Rowden") "Rowden Phillip"))
(constraint (= (f "Phillip" "Rowden") "Rowden Phillip"))
(constraint (= (f "Elias" "Neil") "Neil Elias"))
(constraint (= (f "Elias" "Neil") "Neil Elias"))
(constraint (= (f "Elias" "Neil") "Neil Elias"))
(constraint (= (f "Lashanda" "Cortes") "Cortes Lashanda"))
(constraint (= (f "Lashanda" "Cortes") "Cortes Lashanda"))
(constraint (= (f "Lashanda" "Cortes") "Cortes Lashanda"))
(constraint (= (f "Mackenzie" "Spell") "Spell Mackenzie"))
(constraint (= (f "Mackenzie" "Spell") "Spell Mackenzie"))
(constraint (= (f "Mackenzie" "Spell") "Spell Mackenzie"))
(constraint (= (f "Kathlyn" "Eccleston") "Eccleston Kathlyn"))
(constraint (= (f "Kathlyn" "Eccleston") "Eccleston Kathlyn"))
(constraint (= (f "Kathlyn" "Eccleston") "Eccleston Kathlyn"))
(constraint (= (f "Georgina" "Brescia") "Brescia Georgina"))
(constraint (= (f "Georgina" "Brescia") "Brescia Georgina"))
(constraint (= (f "Georgina" "Brescia") "Brescia Georgina"))
(constraint (= (f "Beata" "Miah") "Miah Beata"))
(constraint (= (f "Beata" "Miah") "Miah Beata"))
(constraint (= (f "Beata" "Miah") "Miah Beata"))
(constraint (= (f "Desiree" "Seamons") "Seamons Desiree"))
(constraint (= (f "Desiree" "Seamons") "Seamons Desiree"))
(constraint (= (f "Desiree" "Seamons") "Seamons Desiree"))
(constraint (= (f "Jeanice" "Soderstrom") "Soderstrom Jeanice"))
(constraint (= (f "Jeanice" "Soderstrom") "Soderstrom Jeanice"))
(constraint (= (f "Jeanice" "Soderstrom") "Soderstrom Jeanice"))
(constraint (= (f "Mariel" "Jurgens") "Jurgens Mariel"))
(constraint (= (f "Mariel" "Jurgens") "Jurgens Mariel"))
(constraint (= (f "Mariel" "Jurgens") "Jurgens Mariel"))
(constraint (= (f "Alida" "Bogle") "Bogle Alida"))
(constraint (= (f "Alida" "Bogle") "Bogle Alida"))
(constraint (= (f "Alida" "Bogle") "Bogle Alida"))
(constraint (= (f "Jacqualine" "Olague") "Olague Jacqualine"))
(constraint (= (f "Jacqualine" "Olague") "Olague Jacqualine"))
(constraint (= (f "Jacqualine" "Olague") "Olague Jacqualine"))
(constraint (= (f "Joaquin" "Clasen") "Clasen Joaquin"))
(constraint (= (f "Joaquin" "Clasen") "Clasen Joaquin"))
(constraint (= (f "Joaquin" "Clasen") "Clasen Joaquin"))
(constraint (= (f "Samuel" "Richert") "Richert Samuel"))
(constraint (= (f "Samuel" "Richert") "Richert Samuel"))
(constraint (= (f "Samuel" "Richert") "Richert Samuel"))
(constraint (= (f "Malissa" "Marcus") "Marcus Malissa"))
(constraint (= (f "Malissa" "Marcus") "Marcus Malissa"))
(constraint (= (f "Malissa" "Marcus") "Marcus Malissa"))
(constraint (= (f "Alaina" "Partida") "Partida Alaina"))
(constraint (= (f "Alaina" "Partida") "Partida Alaina"))
(constraint (= (f "Alaina" "Partida") "Partida Alaina"))
(constraint (= (f "Trinidad" "Mulloy") "Mulloy Trinidad"))
(constraint (= (f "Trinidad" "Mulloy") "Mulloy Trinidad"))
(constraint (= (f "Trinidad" "Mulloy") "Mulloy Trinidad"))
(constraint (= (f "Carlene" "Garrard") "Garrard Carlene"))
(constraint (= (f "Carlene" "Garrard") "Garrard Carlene"))
(constraint (= (f "Carlene" "Garrard") "Garrard Carlene"))
(constraint (= (f "Melodi" "Chism") "Chism Melodi"))
(constraint (= (f "Melodi" "Chism") "Chism Melodi"))
(constraint (= (f "Melodi" "Chism") "Chism Melodi"))
(constraint (= (f "Bess" "Chilcott") "Chilcott Bess"))
(constraint (= (f "Bess" "Chilcott") "Chilcott Bess"))
(constraint (= (f "Bess" "Chilcott") "Chilcott Bess"))
(constraint (= (f "Chong" "Aylward") "Aylward Chong"))
(constraint (= (f "Chong" "Aylward") "Aylward Chong"))
(constraint (= (f "Chong" "Aylward") "Aylward Chong"))
(constraint (= (f "Jani" "Ramthun") "Ramthun Jani"))
(constraint (= (f "Jani" "Ramthun") "Ramthun Jani"))
(constraint (= (f "Jani" "Ramthun") "Ramthun Jani"))
(constraint (= (f "Jacquiline" "Heintz") "Heintz Jacquiline"))
(constraint (= (f "Jacquiline" "Heintz") "Heintz Jacquiline"))
(constraint (= (f "Jacquiline" "Heintz") "Heintz Jacquiline"))
(constraint (= (f "Hayley" "Marquess") "Marquess Hayley"))
(constraint (= (f "Hayley" "Marquess") "Marquess Hayley"))
(constraint (= (f "Hayley" "Marquess") "Marquess Hayley"))
(constraint (= (f "Andria" "Spagnoli") "Spagnoli Andria"))
(constraint (= (f "Andria" "Spagnoli") "Spagnoli Andria"))
(constraint (= (f "Andria" "Spagnoli") "Spagnoli Andria"))
(constraint (= (f "Irwin" "Covelli") "Covelli Irwin"))
(constraint (= (f "Irwin" "Covelli") "Covelli Irwin"))
(constraint (= (f "Irwin" "Covelli") "Covelli Irwin"))
(constraint (= (f "Gertude" "Montiel") "Montiel Gertude"))
(constraint (= (f "Gertude" "Montiel") "Montiel Gertude"))
(constraint (= (f "Gertude" "Montiel") "Montiel Gertude"))
(constraint (= (f "Stefany" "Reily") "Reily Stefany"))
(constraint (= (f "Stefany" "Reily") "Reily Stefany"))
(constraint (= (f "Stefany" "Reily") "Reily Stefany"))
(constraint (= (f "Rae" "Mcgaughey") "Mcgaughey Rae"))
(constraint (= (f "Rae" "Mcgaughey") "Mcgaughey Rae"))
(constraint (= (f "Rae" "Mcgaughey") "Mcgaughey Rae"))
(constraint (= (f "Cruz" "Latimore") "Latimore Cruz"))
(constraint (= (f "Cruz" "Latimore") "Latimore Cruz"))
(constraint (= (f "Cruz" "Latimore") "Latimore Cruz"))
(constraint (= (f "Maryann" "Casler") "Casler Maryann"))
(constraint (= (f "Maryann" "Casler") "Casler Maryann"))
(constraint (= (f "Maryann" "Casler") "Casler Maryann"))
(constraint (= (f "Annalisa" "Gregori") "Gregori Annalisa"))
(constraint (= (f "Annalisa" "Gregori") "Gregori Annalisa"))
(constraint (= (f "Annalisa" "Gregori") "Gregori Annalisa"))
(constraint (= (f "Jenee" "Pannell") "Pannell Jenee"))
(constraint (= (f "Jenee" "Pannell") "Pannell Jenee"))
(constraint (= (f "Jenee" "Pannell") "Pannell Jenee"))
(constraint (= (f "Launa" "Withers") "Withers Launa"))
(constraint (= (f "Lakenya" "Edison") "Edison Lakenya"))
(constraint (= (f "Brendan" "Hage") "Hage Brendan"))
(constraint (= (f "Bradford" "Lango") "Lango Bradford"))
(constraint (= (f "Rudolf" "Akiyama") "Akiyama Rudolf"))
(constraint (= (f "Lara" "Constable") "Constable Lara"))
(constraint (= (f "Madelaine" "Ghoston") "Ghoston Madelaine"))
(constraint (= (f "Salley" "Hornak") "Hornak Salley"))
(constraint (= (f "Micha" "Junkin") "Junkin Micha"))
(constraint (= (f "Teddy" "Bobo") "Bobo Teddy"))
(constraint (= (f "Coralee" "Scalia") "Scalia Coralee"))
(constraint (= (f "Jeff" "Quashie") "Quashie Jeff"))
(constraint (= (f "Vena" "Babiarz") "Babiarz Vena"))
(constraint (= (f "Karrie" "Lain") "Lain Karrie"))
(constraint (= (f "Tobias" "Dermody") "Dermody Tobias"))
(constraint (= (f "Celsa" "Hopkins") "Hopkins Celsa"))
(constraint (= (f "Kimberley" "Halpern") "Halpern Kimberley"))
(constraint (= (f "Phillip" "Rowden") "Rowden Phillip"))
(constraint (= (f "Elias" "Neil") "Neil Elias"))
(constraint (= (f "Lashanda" "Cortes") "Cortes Lashanda"))
(constraint (= (f "Mackenzie" "Spell") "Spell Mackenzie"))
(constraint (= (f "Kathlyn" "Eccleston") "Eccleston Kathlyn"))
(constraint (= (f "Georgina" "Brescia") "Brescia Georgina"))
(constraint (= (f "Beata" "Miah") "Miah Beata"))
(constraint (= (f "Desiree" "Seamons") "Seamons Desiree"))
(constraint (= (f "Jeanice" "Soderstrom") "Soderstrom Jeanice"))
(constraint (= (f "Mariel" "Jurgens") "Jurgens Mariel"))
(constraint (= (f "Alida" "Bogle") "Bogle Alida"))
(constraint (= (f "Jacqualine" "Olague") "Olague Jacqualine"))
(constraint (= (f "Joaquin" "Clasen") "Clasen Joaquin"))
(constraint (= (f "Samuel" "Richert") "Richert Samuel"))
(constraint (= (f "Malissa" "Marcus") "Marcus Malissa"))
(constraint (= (f "Alaina" "Partida") "Partida Alaina"))
(constraint (= (f "Trinidad" "Mulloy") "Mulloy Trinidad"))
(constraint (= (f "Carlene" "Garrard") "Garrard Carlene"))
(constraint (= (f "Melodi" "Chism") "Chism Melodi"))
(constraint (= (f "Bess" "Chilcott") "Chilcott Bess"))
(constraint (= (f "Chong" "Aylward") "Aylward Chong"))
(constraint (= (f "Jani" "Ramthun") "Ramthun Jani"))
(constraint (= (f "Jacquiline" "Heintz") "Heintz Jacquiline"))
(constraint (= (f "Hayley" "Marquess") "Marquess Hayley"))
(constraint (= (f "Andria" "Spagnoli") "Spagnoli Andria"))
(constraint (= (f "Irwin" "Covelli") "Covelli Irwin"))
(constraint (= (f "Gertude" "Montiel") "Montiel Gertude"))
(constraint (= (f "Stefany" "Reily") "Reily Stefany"))
(constraint (= (f "Rae" "Mcgaughey") "Mcgaughey Rae"))
(constraint (= (f "Cruz" "Latimore") "Latimore Cruz"))
(constraint (= (f "Maryann" "Casler") "Casler Maryann"))
(constraint (= (f "Annalisa" "Gregori") "Gregori Annalisa"))
(constraint (= (f "Jenee" "Pannell") "Pannell Jenee"))

(check-synth)
(define-fun f_1 ((firstname String) (lastname String)) String (str.++ (str.++ lastname " ") firstname))
